(set-info :smt-lib-version 2.6)
(set-logic QF_BV)
(set-info :source |
Benchmarks generated by the Calysto static checker.  Provided by Domagoj
Babic.  See http://www.cs.ubc.ca/~babic/index_benchmarks.htm.  Translated using
Spear Sf2Smt translator.

|)
(set-info :category "industrial")
(set-info :status sat)
(declare-fun v41153104 () (_ BitVec 32))
(declare-fun o41153168 () (_ BitVec 64))
(declare-fun v50976328 () (_ BitVec 64))
(declare-fun o41970592 () (_ BitVec 64))
(declare-fun o41970620 () (_ BitVec 64))
(declare-fun o24688752 () (_ BitVec 64))
(declare-fun o24680416 () (_ BitVec 1))
(declare-fun v30031556 () (_ BitVec 64))
(declare-fun o25091916 () (_ BitVec 1))
(declare-fun o25695912 () (_ BitVec 32))
(declare-fun o30569448 () (_ BitVec 1))
(declare-fun o29921968 () (_ BitVec 1))
(declare-fun o29921988 () (_ BitVec 1))
(declare-fun o33288584 () (_ BitVec 1))
(declare-fun v39802692 () (_ BitVec 64))
(declare-fun o54134424 () (_ BitVec 1))
(declare-fun v54427116 () (_ BitVec 64))
(declare-fun o32807496 () (_ BitVec 1))
(declare-fun v38193416 () (_ BitVec 32))
(declare-fun o54445140 () (_ BitVec 1))
(declare-fun o28843072 () (_ BitVec 32))
(declare-fun o28843100 () (_ BitVec 32))
(declare-fun o41853724 () (_ BitVec 1))
(declare-fun o32807424 () (_ BitVec 1))
(declare-fun o32807460 () (_ BitVec 1))
(declare-fun o54444708 () (_ BitVec 1))
(declare-fun o54444752 () (_ BitVec 1))
(declare-fun o51064012 () (_ BitVec 1))
(declare-fun o51064060 () (_ BitVec 1))
(declare-fun o39802756 () (_ BitVec 1))
(declare-fun o54427064 () (_ BitVec 1))
(declare-fun o38193364 () (_ BitVec 1))
(declare-fun o29363556 () (_ BitVec 1))
(declare-fun o29363600 () (_ BitVec 1))
(declare-fun o41853680 () (_ BitVec 1))
(declare-fun o29541296 () (_ BitVec 1))
(declare-fun v37870744 () (_ BitVec 32))
(declare-fun o39014180 () (_ BitVec 1))
(declare-fun v54483372 () (_ BitVec 32))
(declare-fun o35791280 () (_ BitVec 1))
(declare-fun o35791316 () (_ BitVec 1))
(declare-fun v24673152 () (_ BitVec 32))
(declare-fun o24673208 () (_ BitVec 1))
(declare-fun o43998040 () (_ BitVec 1))
(declare-fun o29386208 () (_ BitVec 1))
(declare-fun o39014216 () (_ BitVec 1))
(declare-fun v29386260 () (_ BitVec 32))
(declare-fun o54424440 () (_ BitVec 1))
(declare-fun o54424484 () (_ BitVec 8))
(declare-fun o29625732 () (_ BitVec 1))
(declare-fun o29625760 () (_ BitVec 1))
(declare-fun o39958924 () (_ BitVec 1))
(declare-fun v37022572 () (_ BitVec 32))
(declare-fun v54134400 () (_ BitVec 32))
(declare-fun o37022652 () (_ BitVec 1))
(declare-fun o33010680 () (_ BitVec 32))
(declare-fun o33010708 () (_ BitVec 32))
(declare-fun o44247572 () (_ BitVec 32))
(declare-fun o44247616 () (_ BitVec 1))
(declare-fun o44247652 () (_ BitVec 1))
(declare-fun v33423132 () (_ BitVec 64))
(declare-fun o35791080 () (_ BitVec 1))
(declare-fun v55968652 () (_ BitVec 64))
(declare-fun o55968676 () (_ BitVec 1))
(declare-fun v33894348 () (_ BitVec 32))
(declare-fun v75734324 () (_ BitVec 64))
(declare-fun o39839144 () (_ BitVec 1))
(declare-fun o32061436 () (_ BitVec 32))
(declare-fun o63543188 () (_ BitVec 32))
(declare-fun o60004172 () (_ BitVec 1))
(declare-fun v40509976 () (_ BitVec 1))
(declare-fun o63543628 () (_ BitVec 64))
(declare-fun o59896088 () (_ BitVec 1))
(declare-fun o72964396 () (_ BitVec 1))
(declare-fun o31715536 () (_ BitVec 1))
(declare-fun o55968716 () (_ BitVec 1))
(declare-fun o48192136 () (_ BitVec 1))
(declare-fun o64788496 () (_ BitVec 1))
(declare-fun o59606644 () (_ BitVec 1))
(declare-fun o32560448 () (_ BitVec 1))
(declare-fun o71812760 () (_ BitVec 1))
(declare-fun v34313868 () (_ BitVec 32))
(declare-fun o48192188 () (_ BitVec 1))
(declare-fun o48192208 () (_ BitVec 1))
(declare-fun o54387352 () (_ BitVec 1))
(declare-fun o37580224 () (_ BitVec 1))
(declare-fun o37580244 () (_ BitVec 1))
(declare-fun o54303908 () (_ BitVec 1))
(declare-fun o54268540 () (_ BitVec 1))
(declare-fun o31945572 () (_ BitVec 1))
(declare-fun o54203968 () (_ BitVec 1))
(declare-fun o50363752 () (_ BitVec 1))
(declare-fun v54322024 () (_ BitVec 32))
(declare-fun o54322088 () (_ BitVec 1))
(declare-fun o28915216 () (_ BitVec 1))
(declare-fun o48766084 () (_ BitVec 1))
(declare-fun o50369216 () (_ BitVec 1))
(declare-fun o46901436 () (_ BitVec 1))
(declare-fun o37831416 () (_ BitVec 1))
(declare-fun o35990152 () (_ BitVec 1))
(declare-fun o34501308 () (_ BitVec 1))
(declare-fun o32492876 () (_ BitVec 1))
(declare-fun o39913640 () (_ BitVec 1))
(declare-fun o29098268 () (_ BitVec 1))
(declare-fun v38101416 () (_ BitVec 64))
(declare-fun o55077304 () (_ BitVec 1))
(declare-fun v36237120 () (_ BitVec 32))
(declare-fun v45599348 () (_ BitVec 64))
(declare-fun o29389656 () (_ BitVec 1))
(declare-fun v42368316 () (_ BitVec 32))
(declare-fun v43658152 () (_ BitVec 64))
(declare-fun o54484224 () (_ BitVec 1))
(declare-fun o40489328 () (_ BitVec 32))
(declare-fun o40489356 () (_ BitVec 32))
(declare-fun o54445576 () (_ BitVec 1))
(declare-fun v37824548 () (_ BitVec 32))
(declare-fun o38569708 () (_ BitVec 1))
(declare-fun v47559388 () (_ BitVec 32))
(declare-fun o36577748 () (_ BitVec 32))
(declare-fun o33141112 () (_ BitVec 32))
(declare-fun o33141148 () (_ BitVec 32))
(declare-fun o45421464 () (_ BitVec 1))
(declare-fun o25512428 () (_ BitVec 1))
(declare-fun o54182816 () (_ BitVec 1))
(declare-fun o37503400 () (_ BitVec 1))
(declare-fun v42270460 () (_ BitVec 64))
(declare-fun v34978468 () (_ BitVec 64))
(declare-fun o27872888 () (_ BitVec 1))
(declare-fun o30393660 () (_ BitVec 1))
(declare-fun v27917528 () (_ BitVec 64))
(declare-fun o35903244 () (_ BitVec 1))
(declare-fun o33194988 () (_ BitVec 1))
(declare-fun o28435624 () (_ BitVec 1))
(declare-fun v39226840 () (_ BitVec 64))
(declare-fun o36621936 () (_ BitVec 1))
(declare-fun v38812208 () (_ BitVec 32))
(declare-fun o56999924 () (_ BitVec 1))
(declare-fun o38812288 () (_ BitVec 32))
(declare-fun o30004760 () (_ BitVec 32))
(declare-fun o30004804 () (_ BitVec 1))
(declare-fun o33271588 () (_ BitVec 1))
(declare-fun o33271624 () (_ BitVec 1))
(declare-fun o52399296 () (_ BitVec 1))
(declare-fun o52399324 () (_ BitVec 1))
(declare-fun o52399360 () (_ BitVec 1))
(declare-fun o38775496 () (_ BitVec 1))
(declare-fun o25695956 () (_ BitVec 1))
(declare-fun o64334208 () (_ BitVec 1))
(declare-fun o33891620 () (_ BitVec 1))
(declare-fun o28303936 () (_ BitVec 1))
(declare-fun o66428620 () (_ BitVec 1))
(declare-fun o46427376 () (_ BitVec 1))
(declare-fun o47600384 () (_ BitVec 1))
(declare-fun v39788372 () (_ BitVec 32))
(declare-fun o39788396 () (_ BitVec 32))
(declare-fun o50976268 () (_ BitVec 32))
(declare-fun o50976288 () (_ BitVec 1))
(declare-fun o69317688 () (_ BitVec 1))
(declare-fun o50976352 () (_ BitVec 1))
(declare-fun o34692804 () (_ BitVec 1))
(declare-fun o81474872 () (_ BitVec 1))
(declare-fun v70063508 () (_ BitVec 64))
(declare-fun v41158200 () (_ BitVec 64))
(declare-fun o36782836 () (_ BitVec 1))
(declare-fun v70053144 () (_ BitVec 32))
(declare-fun v35510780 () (_ BitVec 64))
(declare-fun o38370892 () (_ BitVec 1))
(declare-fun v72085708 () (_ BitVec 32))
(declare-fun o33446008 () (_ BitVec 1))
(declare-fun o30419064 () (_ BitVec 32))
(declare-fun o34249052 () (_ BitVec 32))
(declare-fun o33450684 () (_ BitVec 1))
(declare-fun v47990780 () (_ BitVec 32))
(declare-fun o35104864 () (_ BitVec 1))
(declare-fun v71942680 () (_ BitVec 8))
(declare-fun o33043684 () (_ BitVec 8))
(declare-fun o32894076 () (_ BitVec 32))
(declare-fun o39839112 () (_ BitVec 32))
(declare-fun o71883456 () (_ BitVec 32))
(declare-fun o30590352 () (_ BitVec 64))
(declare-fun o56805284 () (_ BitVec 64))
(declare-fun o58166052 () (_ BitVec 64))
(declare-fun v62471148 () (_ BitVec 32))
(declare-fun o57278016 () (_ BitVec 8))
(declare-fun v56050020 () (_ BitVec 8))
(declare-fun o37657648 () (_ BitVec 8))
(declare-fun o33446092 () (_ BitVec 8))
(declare-fun o35179180 () (_ BitVec 8))
(declare-fun o48212568 () (_ BitVec 1))
(declare-fun v36343772 () (_ BitVec 64))
(declare-fun o33598028 () (_ BitVec 1))
(declare-fun v47208116 () (_ BitVec 64))
(declare-fun v37386068 () (_ BitVec 64))
(declare-fun o61349868 () (_ BitVec 1))
(declare-fun v61822368 () (_ BitVec 32))
(declare-fun o36802884 () (_ BitVec 1))
(declare-fun o47374372 () (_ BitVec 32))
(declare-fun o37182628 () (_ BitVec 32))
(declare-fun o37703512 () (_ BitVec 1))
(declare-fun v70066012 () (_ BitVec 64))
(declare-fun o59987220 () (_ BitVec 64))
(declare-fun o59851032 () (_ BitVec 64))
(declare-fun v37340756 () (_ BitVec 64))
(declare-fun v71980428 () (_ BitVec 8))
(declare-fun o27747240 () (_ BitVec 8))
(declare-fun o62672584 () (_ BitVec 64))
(declare-fun o48821636 () (_ BitVec 64))
(declare-fun o61595588 () (_ BitVec 64))
(declare-fun o57557316 () (_ BitVec 64))
(declare-fun o60766856 () (_ BitVec 64))
(declare-fun o59312692 () (_ BitVec 64))
(declare-fun o59987048 () (_ BitVec 64))
(declare-fun o55770528 () (_ BitVec 1))
(declare-fun v58176668 () (_ BitVec 32))
(declare-fun v71992212 () (_ BitVec 32))
(declare-fun o66366048 () (_ BitVec 32))
(declare-fun o30457652 () (_ BitVec 32))
(declare-fun o60487384 () (_ BitVec 8))
(declare-fun o59935820 () (_ BitVec 8))
(declare-fun o32868324 () (_ BitVec 1))
(declare-fun v63980212 () (_ BitVec 1))
(declare-fun o45842196 () (_ BitVec 1))
(declare-fun o54098056 () (_ BitVec 1))
(declare-fun o54446396 () (_ BitVec 1))
(declare-fun v62980180 () (_ BitVec 64))
(declare-fun v62471604 () (_ BitVec 8))
(declare-fun o59559084 () (_ BitVec 8))
(declare-fun o60377804 () (_ BitVec 64))
(declare-fun o66478512 () (_ BitVec 64))
(declare-fun o57777772 () (_ BitVec 64))
(declare-fun o54469260 () (_ BitVec 64))
(declare-fun v62441096 () (_ BitVec 64))
(declare-fun v72072432 () (_ BitVec 8))
(declare-fun o54254924 () (_ BitVec 8))
(declare-fun o60417588 () (_ BitVec 64))
(declare-fun o57902180 () (_ BitVec 64))
(declare-fun o37296548 () (_ BitVec 64))
(declare-fun o33824552 () (_ BitVec 64))
(declare-fun v38671988 () (_ BitVec 32))
(declare-fun v72022560 () (_ BitVec 8))
(declare-fun o52123800 () (_ BitVec 8))
(declare-fun o32517696 () (_ BitVec 32))
(declare-fun o33445840 () (_ BitVec 32))
(declare-fun o31941656 () (_ BitVec 32))
(declare-fun o30751632 () (_ BitVec 64))
(declare-fun o35224112 () (_ BitVec 1))
(declare-fun o31760244 () (_ BitVec 1))
(declare-fun o31896672 () (_ BitVec 1))
(declare-fun v39215132 () (_ BitVec 64))
(declare-fun v62681204 () (_ BitVec 8))
(declare-fun o54043396 () (_ BitVec 8))
(declare-fun o61263260 () (_ BitVec 64))
(declare-fun o38133952 () (_ BitVec 64))
(declare-fun o40675496 () (_ BitVec 64))
(declare-fun o31882176 () (_ BitVec 1))
(declare-fun o32119828 () (_ BitVec 1))
(declare-fun o39734936 () (_ BitVec 1))
(declare-fun o37580640 () (_ BitVec 1))
(declare-fun o54446160 () (_ BitVec 1))
(declare-fun o61220128 () (_ BitVec 1))
(declare-fun o35555084 () (_ BitVec 1))
(declare-fun o32934020 () (_ BitVec 1))
(declare-fun o51644692 () (_ BitVec 1))
(declare-fun o32869448 () (_ BitVec 1))
(declare-fun o49376584 () (_ BitVec 1))
(declare-fun o54072944 () (_ BitVec 1))
(declare-fun o61546572 () (_ BitVec 1))
(declare-fun o59342316 () (_ BitVec 1))
(declare-fun o37800732 () (_ BitVec 1))
(declare-fun o59177792 () (_ BitVec 1))
(declare-fun o30760944 () (_ BitVec 1))
(declare-fun o58430488 () (_ BitVec 1))
(declare-fun o45020800 () (_ BitVec 1))
(declare-fun o52945348 () (_ BitVec 1))
(declare-fun o57686340 () (_ BitVec 1))
(declare-fun o68656592 () (_ BitVec 1))
(declare-fun o54439080 () (_ BitVec 1))
(declare-fun v36173904 () (_ BitVec 32))
(declare-fun v58817252 () (_ BitVec 32))
(declare-fun o37564548 () (_ BitVec 32))
(declare-fun o55825844 () (_ BitVec 32))
(declare-fun o36648916 () (_ BitVec 32))
(declare-fun o34131304 () (_ BitVec 1))
(declare-fun o54406348 () (_ BitVec 1))
(declare-fun o25369884 () (_ BitVec 1))
(declare-fun Fresh__0 () (_ BitVec 1))
(declare-fun Fresh__1 () (_ BitVec 1))
(declare-fun Fresh__2 () (_ BitVec 1))
(declare-fun Fresh__3 () (_ BitVec 1))
(declare-fun Fresh__4 () (_ BitVec 1))
(declare-fun Fresh__5 () (_ BitVec 1))
(declare-fun Fresh__6 () (_ BitVec 1))
(declare-fun Fresh__7 () (_ BitVec 1))
(declare-fun Fresh__8 () (_ BitVec 1))
(declare-fun Fresh__9 () (_ BitVec 1))
(declare-fun Fresh__10 () (_ BitVec 1))
(declare-fun Fresh__11 () (_ BitVec 1))
(declare-fun Fresh__12 () (_ BitVec 1))
(declare-fun Fresh__13 () (_ BitVec 1))
(declare-fun Fresh__14 () (_ BitVec 1))
(declare-fun Fresh__15 () (_ BitVec 1))
(declare-fun Fresh__16 () (_ BitVec 1))
(declare-fun Fresh__17 () (_ BitVec 1))
(declare-fun Fresh__18 () (_ BitVec 1))
(declare-fun Fresh__19 () (_ BitVec 1))
(declare-fun Fresh__20 () (_ BitVec 1))
(declare-fun Fresh__21 () (_ BitVec 1))
(declare-fun Fresh__22 () (_ BitVec 1))
(declare-fun Fresh__23 () (_ BitVec 1))
(declare-fun Fresh__24 () (_ BitVec 1))
(declare-fun Fresh__25 () (_ BitVec 1))
(declare-fun Fresh__26 () (_ BitVec 1))
(declare-fun Fresh__27 () (_ BitVec 1))
(declare-fun Fresh__28 () (_ BitVec 1))
(declare-fun Fresh__29 () (_ BitVec 1))
(declare-fun Fresh__30 () (_ BitVec 1))
(declare-fun Fresh__31 () (_ BitVec 1))
(declare-fun Fresh__32 () (_ BitVec 1))
(declare-fun Fresh__33 () (_ BitVec 1))
(declare-fun Fresh__34 () (_ BitVec 1))
(declare-fun Fresh__35 () (_ BitVec 1))
(declare-fun Fresh__36 () (_ BitVec 1))
(declare-fun Fresh__37 () (_ BitVec 1))
(declare-fun Fresh__38 () (_ BitVec 1))
(declare-fun Fresh__39 () (_ BitVec 1))
(declare-fun Fresh__40 () (_ BitVec 1))
(declare-fun Fresh__41 () (_ BitVec 1))
(declare-fun Fresh__42 () (_ BitVec 1))
(declare-fun Fresh__43 () (_ BitVec 1))
(declare-fun Fresh__44 () (_ BitVec 1))
(declare-fun Fresh__45 () (_ BitVec 1))
(declare-fun Fresh__46 () (_ BitVec 1))
(declare-fun Fresh__47 () (_ BitVec 1))
(declare-fun Fresh__48 () (_ BitVec 1))
(declare-fun Fresh__49 () (_ BitVec 1))
(declare-fun Fresh__50 () (_ BitVec 1))
(declare-fun Fresh__51 () (_ BitVec 1))
(declare-fun Fresh__52 () (_ BitVec 1))
(declare-fun Fresh__53 () (_ BitVec 1))
(declare-fun Fresh__54 () (_ BitVec 1))
(declare-fun Fresh__55 () (_ BitVec 1))
(declare-fun Fresh__56 () (_ BitVec 1))
(declare-fun Fresh__57 () (_ BitVec 1))
(declare-fun Fresh__58 () (_ BitVec 1))
(declare-fun Fresh__59 () (_ BitVec 1))
(declare-fun Fresh__60 () (_ BitVec 1))
(declare-fun Fresh__61 () (_ BitVec 1))
(declare-fun Fresh__62 () (_ BitVec 1))
(declare-fun Fresh__63 () (_ BitVec 1))
(declare-fun Fresh__64 () (_ BitVec 1))
(declare-fun Fresh__65 () (_ BitVec 1))
(declare-fun Fresh__66 () (_ BitVec 1))
(declare-fun Fresh__67 () (_ BitVec 1))
(declare-fun Fresh__68 () (_ BitVec 1))
(declare-fun Fresh__69 () (_ BitVec 1))
(declare-fun Fresh__70 () (_ BitVec 1))
(declare-fun Fresh__71 () (_ BitVec 1))
(declare-fun Fresh__72 () (_ BitVec 1))
(assert (= o41153168 ((_ sign_extend 32) v41153104)))
(assert (= o41970592 (bvadd o41153168 v50976328)))
(assert (= o41970620 (bvadd ((_ extract 63 0) (_ bv18446744073709551615 64)) o41970592)))
(assert (= o24688752 (bvudiv o41970620 o41153168)))
(assert (= (= Fresh__0 (_ bv1 1)) (bvult ((_ extract 63 0) (_ bv0 64)) o24688752)))
(assert (= o24680416 Fresh__0))
(assert (= (= Fresh__1 (_ bv1 1)) (bvslt v30031556 ((_ extract 63 0) (_ bv0 64)))))
(assert (= o25091916 Fresh__1))
(assert (= o25695912 (ite (= o25091916 (_ bv1 1)) ((_ extract 31 0) (_ bv18446744073709551615 64)) ((_ extract 31 0) (_ bv0 64)))))
(assert (= (= Fresh__2 (_ bv1 1)) (bvslt o25695912 ((_ extract 31 0) (_ bv0 64)))))
(assert (= o30569448 Fresh__2))
(assert (= (= Fresh__3 (_ bv1 1)) (bvsle ((_ extract 63 0) (_ bv0 64)) v30031556)))
(assert (= o29921968 Fresh__3))
(assert (= o29921988 (bvand ((_ extract 0 0) (_ bv1 64)) o29921968)))
(assert (= o33288584 (ite (= o25091916 (_ bv1 1)) ((_ extract 0 0) (_ bv1 64)) o29921988)))
(assert (= (= Fresh__4 (_ bv1 1)) (bvslt v39802692 ((_ extract 63 0) (_ bv0 64)))))
(assert (= o54134424 Fresh__4))
(assert (= (= Fresh__5 (_ bv1 1)) (bvslt v54427116 ((_ extract 63 0) (_ bv0 64)))))
(assert (= o32807496 Fresh__5))
(assert (= (= Fresh__6 (_ bv1 1)) (bvult v54427116 ((_ extract 63 0) (_ bv96 64)))))
(assert (= o54445140 Fresh__6))
(assert (= o28843072 (ite (= o54445140 (_ bv1 1)) ((_ extract 31 0) (_ bv18446744073709551615 64)) ((_ extract 31 0) (_ bv0 64)))))
(assert (= o28843100 (ite (= o32807496 (_ bv1 1)) v38193416 o28843072)))
(assert (= (= Fresh__7 (_ bv1 1)) (bvslt o28843100 ((_ extract 31 0) (_ bv0 64)))))
(assert (= o41853724 Fresh__7))
(assert (= (= Fresh__8 (_ bv1 1)) (bvsle ((_ extract 63 0) (_ bv0 64)) v54427116)))
(assert (= o32807424 Fresh__8))
(assert (= o32807460 (bvand ((_ extract 0 0) (_ bv1 64)) o32807424)))
(assert (= (= Fresh__9 (_ bv1 1)) (bvule ((_ extract 63 0) (_ bv96 64)) v54427116)))
(assert (= o54444708 Fresh__9))
(assert (= o54444752 (bvand o32807460 o54444708)))
(assert (= o51064012 (ite (= o54445140 (_ bv1 1)) o32807460 o54444752)))
(assert (= o51064060 (ite (= o32807496 (_ bv1 1)) ((_ extract 0 0) (_ bv1 64)) o51064012)))
(assert (= (= Fresh__10 (_ bv1 1)) (bvsle ((_ extract 63 0) (_ bv0 64)) v39802692)))
(assert (= o39802756 Fresh__10))
(assert (= o54427064 (bvand ((_ extract 0 0) (_ bv1 64)) o39802756)))
(assert (= o38193364 (bvand o51064060 o54427064)))
(assert (= (= Fresh__11 (_ bv1 1)) (bvsle ((_ extract 31 0) (_ bv0 64)) o28843100)))
(assert (= o29363556 Fresh__11))
(assert (= o29363600 (bvand o29363556 o38193364)))
(assert (= o41853680 (ite (= o41853724 (_ bv1 1)) o38193364 o29363600)))
(assert (= o29541296 (ite (= o54134424 (_ bv1 1)) ((_ extract 0 0) (_ bv1 64)) o41853680)))
(assert (= (= Fresh__12 (_ bv1 1)) (bvsle ((_ extract 31 0) (_ bv0 64)) v37870744)))
(assert (= o39014180 Fresh__12))
(assert (= (= Fresh__13 (_ bv1 1)) (distinct v54483372 ((_ extract 31 0) (_ bv0 64)))))
(assert (= o35791280 Fresh__13))
(assert (= o35791316 (bvand ((_ extract 0 0) (_ bv1 64)) o35791280)))
(assert (= (= Fresh__14 (_ bv1 1)) (distinct ((_ extract 31 0) (_ bv0 64)) v24673152)))
(assert (= o24673208 Fresh__14))
(assert (= o43998040 (bvand o35791316 o24673208)))
(assert (= o29386208 (bvand o39014180 o43998040)))
(assert (= o39014216 (bvand ((_ extract 0 0) (_ bv1 64)) o29386208)))
(assert (= (= Fresh__15 (_ bv1 1)) (distinct ((_ extract 31 0) (_ bv18446744073709551615 64)) v29386260)))
(assert (= o54424440 Fresh__15))
(assert (= o54424484 ((_ zero_extend 7) o54424440)))
(assert (= (= Fresh__16 (_ bv1 1)) (distinct o54424484 ((_ extract 7 0) (_ bv0 64)))))
(assert (= o29625732 Fresh__16))
(assert (= o29625760 (bvand o39014216 o29625732)))
(assert (= o39958924 (bvand o29541296 o29625760)))
(assert (= (= Fresh__17 (_ bv1 1)) (= v54134400 ((_ extract 31 0) (_ bv0 64)))))
(assert (= o37022652 Fresh__17))
(assert (= o33010680 (ite (= o37022652 (_ bv1 1)) ((_ extract 31 0) (_ bv0 64)) ((_ extract 31 0) (_ bv18446744073709551615 64)))))
(assert (= o33010708 (ite (= o41853724 (_ bv1 1)) v37022572 o33010680)))
(assert (= o44247572 (ite (= o54134424 (_ bv1 1)) v37022572 o33010708)))
(assert (= (= Fresh__18 (_ bv1 1)) (bvsle ((_ extract 31 0) (_ bv0 64)) o44247572)))
(assert (= o44247616 Fresh__18))
(assert (= o44247652 (bvand o39958924 o44247616)))
(assert (= (= Fresh__19 (_ bv1 1)) (bvslt v33423132 ((_ extract 63 0) (_ bv0 64)))))
(assert (= o35791080 Fresh__19))
(assert (= (= Fresh__20 (_ bv1 1)) (bvslt v55968652 ((_ extract 63 0) (_ bv0 64)))))
(assert (= o55968676 Fresh__20))
(assert (= (= Fresh__21 (_ bv1 1)) (bvult v55968652 v75734324)))
(assert (= o39839144 Fresh__21))
(assert (= o32061436 (ite (= o39839144 (_ bv1 1)) ((_ extract 31 0) (_ bv18446744073709551615 64)) ((_ extract 31 0) (_ bv0 64)))))
(assert (= o63543188 (ite (= o55968676 (_ bv1 1)) v33894348 o32061436)))
(assert (= (= Fresh__22 (_ bv1 1)) (bvslt o63543188 ((_ extract 31 0) (_ bv0 64)))))
(assert (= o60004172 Fresh__22))
(assert (= o63543628 (bvshl v75734324 (concat (_ bv0 56) ((_ extract 7 0) (_ bv3 64))))))
(assert (= (= Fresh__23 (_ bv1 1)) (bvule o63543628 ((_ extract 63 0) (_ bv0 64)))))
(assert (= o59896088 Fresh__23))
(assert (= o72964396 (bvand o59896088 ((_ extract 0 0) (_ bv1 64)))))
(assert (= o31715536 (ite (= v40509976 (_ bv1 1)) o72964396 ((_ extract 0 0) (_ bv1 64)))))
(assert (= (= Fresh__24 (_ bv1 1)) (bvsle ((_ extract 63 0) (_ bv0 64)) v55968652)))
(assert (= o55968716 Fresh__24))
(assert (= o48192136 (bvand ((_ extract 0 0) (_ bv1 64)) o55968716)))
(assert (= (= Fresh__25 (_ bv1 1)) (bvule v75734324 v55968652)))
(assert (= o64788496 Fresh__25))
(assert (= o59606644 (bvand o64788496 o48192136)))
(assert (= o32560448 (ite (= o39839144 (_ bv1 1)) o48192136 o59606644)))
(assert (= o71812760 (ite (= o55968676 (_ bv1 1)) ((_ extract 0 0) (_ bv1 64)) o32560448)))
(assert (= (= Fresh__26 (_ bv1 1)) (distinct ((_ extract 31 0) (_ bv0 64)) v34313868)))
(assert (= o48192188 Fresh__26))
(assert (= o48192208 (bvand o48192188 ((_ extract 0 0) (_ bv1 64)))))
(assert (= o54387352 (ite (= v40509976 (_ bv1 1)) o48192208 ((_ extract 0 0) (_ bv1 64)))))
(assert (= (= Fresh__27 (_ bv1 1)) (bvsle ((_ extract 63 0) (_ bv0 64)) v33423132)))
(assert (= o37580224 Fresh__27))
(assert (= o37580244 (bvand ((_ extract 0 0) (_ bv1 64)) o37580224)))
(assert (= o54303908 (bvand o54387352 o37580244)))
(assert (= o54268540 (bvand o59896088 o54303908)))
(assert (= o31945572 (bvand o71812760 o54268540)))
(assert (= o54203968 (bvand o31945572 o60004172)))
(assert (= o50363752 (bvand o31715536 o54203968)))
(assert (= (= Fresh__28 (_ bv1 1)) (bvslt v54322024 ((_ extract 31 0) (_ bv0 64)))))
(assert (= o54322088 Fresh__28))
(assert (= (= Fresh__29 (_ bv1 1)) (bvsle ((_ extract 31 0) (_ bv0 64)) o63543188)))
(assert (= o28915216 Fresh__29))
(assert (= o48766084 (bvand o31945572 o28915216)))
(assert (= o50369216 (bvand o48766084 o54322088)))
(assert (= o46901436 (bvand o31715536 o50369216)))
(assert (= (= Fresh__30 (_ bv1 1)) (bvsle ((_ extract 31 0) (_ bv0 64)) v54322024)))
(assert (= o37831416 Fresh__30))
(assert (= o35990152 (bvand o48766084 o37831416)))
(assert (= o34501308 (ite (= o54322088 (_ bv1 1)) o46901436 o35990152)))
(assert (= o32492876 (ite (= o60004172 (_ bv1 1)) o50363752 o34501308)))
(assert (= o39913640 (ite (= o35791080 (_ bv1 1)) ((_ extract 0 0) (_ bv1 64)) o32492876)))
(assert (= o29098268 (bvand o44247652 o39913640)))
(assert (= (= Fresh__31 (_ bv1 1)) (bvslt v38101416 ((_ extract 63 0) (_ bv0 64)))))
(assert (= o55077304 Fresh__31))
(assert (= (= Fresh__32 (_ bv1 1)) (bvslt v45599348 ((_ extract 63 0) (_ bv0 64)))))
(assert (= o29389656 Fresh__32))
(assert (= (= Fresh__33 (_ bv1 1)) (bvult v45599348 v43658152)))
(assert (= o54484224 Fresh__33))
(assert (= o40489328 (ite (= o54484224 (_ bv1 1)) ((_ extract 31 0) (_ bv18446744073709551615 64)) ((_ extract 31 0) (_ bv0 64)))))
(assert (= o40489356 (ite (= o29389656 (_ bv1 1)) v42368316 o40489328)))
(assert (= (= Fresh__34 (_ bv1 1)) (bvslt o40489356 ((_ extract 31 0) (_ bv0 64)))))
(assert (= o54445576 Fresh__34))
(assert (= (= Fresh__35 (_ bv1 1)) (bvslt v37824548 ((_ extract 31 0) (_ bv0 64)))))
(assert (= o38569708 Fresh__35))
(assert (= o36577748 (ite (= o38569708 (_ bv1 1)) ((_ extract 31 0) (_ bv0 64)) v47559388)))
(assert (= o33141112 (ite (= o54445576 (_ bv1 1)) v36237120 o36577748)))
(assert (= o33141148 (ite (= o55077304 (_ bv1 1)) v36237120 o33141112)))
(assert (= (= Fresh__36 (_ bv1 1)) (distinct o33141148 ((_ extract 31 0) (_ bv0 64)))))
(assert (= o45421464 Fresh__36))
(assert (= o25512428 (bvand o29098268 o45421464)))
(assert (= (= Fresh__37 (_ bv1 1)) (bvult ((_ extract 31 0) (_ bv0 64)) v24673152)))
(assert (= o54182816 Fresh__37))
(assert (= o37503400 (bvand o25512428 o54182816)))
(assert (= (= Fresh__38 (_ bv1 1)) (bvule v42270460 v34978468)))
(assert (= o27872888 Fresh__38))
(assert (= o30393660 (bvand o37503400 o27872888)))
(assert (= (= Fresh__39 (_ bv1 1)) (bvule v34978468 v27917528)))
(assert (= o35903244 Fresh__39))
(assert (= o33194988 (bvand o30393660 o35903244)))
(assert (= o28435624 (bvand o33288584 o33194988)))
(assert (= (= Fresh__40 (_ bv1 1)) (bvslt v39226840 ((_ extract 63 0) (_ bv0 64)))))
(assert (= o36621936 Fresh__40))
(assert (= (= Fresh__41 (_ bv1 1)) (bvult v39226840 ((_ extract 63 0) (_ bv24 64)))))
(assert (= o56999924 Fresh__41))
(assert (= o38812288 (ite (= o56999924 (_ bv1 1)) ((_ extract 31 0) (_ bv18446744073709551615 64)) ((_ extract 31 0) (_ bv0 64)))))
(assert (= o30004760 (ite (= o36621936 (_ bv1 1)) v38812208 o38812288)))
(assert (= (= Fresh__42 (_ bv1 1)) (bvslt o30004760 ((_ extract 31 0) (_ bv0 64)))))
(assert (= o30004804 Fresh__42))
(assert (= (= Fresh__43 (_ bv1 1)) (bvsle ((_ extract 63 0) (_ bv0 64)) v39226840)))
(assert (= o33271588 Fresh__43))
(assert (= o33271624 (bvand ((_ extract 0 0) (_ bv1 64)) o33271588)))
(assert (= (= Fresh__44 (_ bv1 1)) (bvule ((_ extract 63 0) (_ bv24 64)) v39226840)))
(assert (= o52399296 Fresh__44))
(assert (= o52399324 (bvand o52399296 o33271624)))
(assert (= o52399360 (ite (= o56999924 (_ bv1 1)) o33271624 o52399324)))
(assert (= o38775496 (ite (= o36621936 (_ bv1 1)) ((_ extract 0 0) (_ bv1 64)) o52399360)))
(assert (= (= Fresh__45 (_ bv1 1)) (bvsle ((_ extract 31 0) (_ bv0 64)) o25695912)))
(assert (= o25695956 Fresh__45))
(assert (= o64334208 (bvand o28435624 o25695956)))
(assert (= o33891620 (bvand o38775496 o64334208)))
(assert (= (= Fresh__46 (_ bv1 1)) (bvsle ((_ extract 31 0) (_ bv0 64)) o30004760)))
(assert (= o28303936 Fresh__46))
(assert (= o66428620 (bvand o33891620 o28303936)))
(assert (= o46427376 (ite (= o30004804 (_ bv1 1)) o33891620 o66428620)))
(assert (= o47600384 (ite (= o30569448 (_ bv1 1)) o28435624 o46427376)))
(assert (= o39788396 (ite (= o30004804 (_ bv1 1)) ((_ extract 31 0) (_ bv18446744073709551615 64)) ((_ extract 31 0) (_ bv0 64)))))
(assert (= o50976268 (ite (= o30569448 (_ bv1 1)) v39788372 o39788396)))
(assert (= (= Fresh__47 (_ bv1 1)) (bvsle ((_ extract 31 0) (_ bv0 64)) o50976268)))
(assert (= o50976288 Fresh__47))
(assert (= o69317688 (bvand o47600384 o50976288)))
(assert (= (= Fresh__48 (_ bv1 1)) (distinct ((_ extract 63 0) (_ bv0 64)) v50976328)))
(assert (= o50976352 Fresh__48))
(assert (= o34692804 (bvand o69317688 o50976352)))
(assert (= o81474872 (bvand o24680416 o34692804)))
(assert (= (= Fresh__49 (_ bv1 1)) (bvslt v41158200 ((_ extract 63 0) (_ bv0 64)))))
(assert (= o36782836 Fresh__49))
(assert (= (= Fresh__50 (_ bv1 1)) (bvslt v35510780 ((_ extract 63 0) (_ bv0 64)))))
(assert (= o38370892 Fresh__50))
(assert (= (= Fresh__51 (_ bv1 1)) (bvult v35510780 v75734324)))
(assert (= o33446008 Fresh__51))
(assert (= o30419064 (ite (= o33446008 (_ bv1 1)) ((_ extract 31 0) (_ bv18446744073709551615 64)) ((_ extract 31 0) (_ bv0 64)))))
(assert (= o34249052 (ite (= o38370892 (_ bv1 1)) v72085708 o30419064)))
(assert (= (= Fresh__52 (_ bv1 1)) (bvslt o34249052 ((_ extract 31 0) (_ bv0 64)))))
(assert (= o33450684 Fresh__52))
(assert (= (= Fresh__53 (_ bv1 1)) (bvslt v47990780 ((_ extract 31 0) (_ bv0 64)))))
(assert (= o35104864 Fresh__53))
(assert (= o33043684 (ite (= o35104864 (_ bv1 1)) ((_ extract 7 0) (_ bv0 64)) v71942680)))
(assert (= o32894076 ((_ sign_extend 24) o33043684)))
(assert (= o39839112 (ite (= o33450684 (_ bv1 1)) v70053144 o32894076)))
(assert (= o71883456 (ite (= o36782836 (_ bv1 1)) v70053144 o39839112)))
(assert (= o30590352 ((_ sign_extend 32) o71883456)))
(assert (= o56805284 (bvsrem v70063508 o30590352)))
(assert (= o58166052 (bvsub v70063508 o56805284)))
(assert (= o57278016 ((_ extract 7 0) v62471148)))
(assert (= o37657648 (ite (= o35104864 (_ bv1 1)) ((_ extract 7 0) (_ bv0 64)) v56050020)))
(assert (= o33446092 (ite (= o33450684 (_ bv1 1)) o57278016 o37657648)))
(assert (= o35179180 (ite (= o36782836 (_ bv1 1)) o57278016 o33446092)))
(assert (= (= Fresh__54 (_ bv1 1)) (= ((_ extract 7 0) (_ bv0 64)) o35179180)))
(assert (= o48212568 Fresh__54))
(assert (= (= Fresh__55 (_ bv1 1)) (bvslt v36343772 ((_ extract 63 0) (_ bv0 64)))))
(assert (= o33598028 Fresh__55))
(assert (= (= Fresh__56 (_ bv1 1)) (bvslt v37386068 ((_ extract 63 0) (_ bv0 64)))))
(assert (= o61349868 Fresh__56))
(assert (= (= Fresh__57 (_ bv1 1)) (bvult v37386068 o30590352)))
(assert (= o36802884 Fresh__57))
(assert (= o47374372 (ite (= o36802884 (_ bv1 1)) ((_ extract 31 0) (_ bv18446744073709551615 64)) ((_ extract 31 0) (_ bv0 64)))))
(assert (= o37182628 (ite (= o61349868 (_ bv1 1)) v61822368 o47374372)))
(assert (= (= Fresh__58 (_ bv1 1)) (bvslt o37182628 ((_ extract 31 0) (_ bv0 64)))))
(assert (= o37703512 Fresh__58))
(assert (= o59987220 (ite (= o37703512 (_ bv1 1)) ((_ extract 63 0) (_ bv0 64)) v70066012)))
(assert (= o59851032 (ite (= o33598028 (_ bv1 1)) v47208116 o59987220)))
(assert (= o27747240 (ite (= o35104864 (_ bv1 1)) ((_ extract 7 0) (_ bv0 64)) v71980428)))
(assert (= o62672584 ((_ sign_extend 56) o27747240)))
(assert (= o48821636 (ite (= o33450684 (_ bv1 1)) v37340756 o62672584)))
(assert (= o61595588 (ite (= o36782836 (_ bv1 1)) v37340756 o48821636)))
(assert (= o57557316 (ite (= o48212568 (_ bv1 1)) o59851032 o61595588)))
(assert (= o60766856 (bvsub o58166052 o57557316)))
(assert (= o59312692 (bvsdiv o60766856 o30590352)))
(assert (= o59987048 (bvsdiv o59312692 ((_ extract 63 0) (_ bv8 64)))))
(assert (= (= Fresh__59 (_ bv1 1)) (bvult o59987048 o30590352)))
(assert (= o55770528 Fresh__59))
(assert (= o66366048 (ite (= o37703512 (_ bv1 1)) ((_ extract 31 0) (_ bv0 64)) v71992212)))
(assert (= o30457652 (ite (= o33598028 (_ bv1 1)) v58176668 o66366048)))
(assert (= o60487384 ((_ extract 7 0) o30457652)))
(assert (= o59935820 (ite (= o48212568 (_ bv1 1)) o60487384 o35179180)))
(assert (= (= Fresh__60 (_ bv1 1)) (distinct o59935820 ((_ extract 7 0) (_ bv0 64)))))
(assert (= o32868324 Fresh__60))
(assert (= (= Fresh__61 (_ bv1 1)) (distinct ((_ extract 31 0) (_ bv0 64)) v71992212)))
(assert (= o45842196 Fresh__61))
(assert (= o54098056 (bvand o45842196 ((_ extract 0 0) (_ bv1 64)))))
(assert (= o54446396 (ite (= v63980212 (_ bv1 1)) o54098056 ((_ extract 0 0) (_ bv1 64)))))
(assert (= o59559084 (ite (= o35104864 (_ bv1 1)) ((_ extract 7 0) (_ bv0 64)) v62471604)))
(assert (= o60377804 ((_ sign_extend 56) o59559084)))
(assert (= o66478512 (ite (= o33450684 (_ bv1 1)) v62980180 o60377804)))
(assert (= o57777772 (ite (= o36782836 (_ bv1 1)) v62980180 o66478512)))
(assert (= o54469260 (bvsub o58166052 o57777772)))
(assert (= o54254924 (ite (= o35104864 (_ bv1 1)) ((_ extract 7 0) (_ bv0 64)) v72072432)))
(assert (= o60417588 ((_ sign_extend 56) o54254924)))
(assert (= o57902180 (ite (= o33450684 (_ bv1 1)) v62441096 o60417588)))
(assert (= o37296548 (ite (= o36782836 (_ bv1 1)) v62441096 o57902180)))
(assert (= o33824552 (bvudiv o54469260 o37296548)))
(assert (= o52123800 (ite (= o35104864 (_ bv1 1)) ((_ extract 7 0) (_ bv0 64)) v72022560)))
(assert (= o32517696 ((_ sign_extend 24) o52123800)))
(assert (= o33445840 (ite (= o33450684 (_ bv1 1)) v38671988 o32517696)))
(assert (= o31941656 (ite (= o36782836 (_ bv1 1)) v38671988 o33445840)))
(assert (= o30751632 ((_ sign_extend 32) o31941656)))
(assert (= (= Fresh__62 (_ bv1 1)) (bvult o33824552 o30751632)))
(assert (= o35224112 Fresh__62))
(assert (= (= Fresh__63 (_ bv1 1)) (bvsle o57777772 o58166052)))
(assert (= o31760244 Fresh__63))
(assert (= o31896672 (bvand o31760244 ((_ extract 0 0) (_ bv1 64)))))
(assert (= o54043396 (ite (= o35104864 (_ bv1 1)) ((_ extract 7 0) (_ bv0 64)) v62681204)))
(assert (= o61263260 ((_ sign_extend 56) o54043396)))
(assert (= o38133952 (ite (= o33450684 (_ bv1 1)) v39215132 o61263260)))
(assert (= o40675496 (ite (= o36782836 (_ bv1 1)) v39215132 o38133952)))
(assert (= (= Fresh__64 (_ bv1 1)) (bvslt o58166052 o40675496)))
(assert (= o31882176 Fresh__64))
(assert (= o32119828 (bvand o31896672 o31882176)))
(assert (= o39734936 (bvand o35224112 o32119828)))
(assert (= o37580640 (bvand o48212568 o39734936)))
(assert (= o54446160 (bvand o54446396 o37580640)))
(assert (= (= Fresh__65 (_ bv1 1)) (bvsle ((_ extract 63 0) (_ bv0 64)) v37386068)))
(assert (= o61220128 Fresh__65))
(assert (= o35555084 (bvand ((_ extract 0 0) (_ bv1 64)) o61220128)))
(assert (= (= Fresh__66 (_ bv1 1)) (bvule o30590352 v37386068)))
(assert (= o32934020 Fresh__66))
(assert (= o51644692 (bvand o32934020 o35555084)))
(assert (= o32869448 (ite (= o36802884 (_ bv1 1)) o35555084 o51644692)))
(assert (= o49376584 (ite (= o61349868 (_ bv1 1)) ((_ extract 0 0) (_ bv1 64)) o32869448)))
(assert (= (= Fresh__67 (_ bv1 1)) (bvsle ((_ extract 63 0) (_ bv0 64)) v36343772)))
(assert (= o54072944 Fresh__67))
(assert (= o61546572 (bvand o54072944 o54446160)))
(assert (= o59342316 (bvand o49376584 o61546572)))
(assert (= (= Fresh__68 (_ bv1 1)) (bvsle ((_ extract 31 0) (_ bv0 64)) o37182628)))
(assert (= o37800732 Fresh__68))
(assert (= o59177792 (bvand o37800732 o59342316)))
(assert (= o30760944 (ite (= o37703512 (_ bv1 1)) o59342316 o59177792)))
(assert (= o58430488 (ite (= o33598028 (_ bv1 1)) o54446160 o30760944)))
(assert (= o45020800 (ite (= o48212568 (_ bv1 1)) o58430488 o39734936)))
(assert (= o52945348 (bvand o45020800 o32119828)))
(assert (= o57686340 (bvand o32868324 o52945348)))
(assert (= o68656592 (bvand o55770528 o57686340)))
(assert (= o54439080 (bvand o68656592 ((_ extract 0 0) (_ bv1 64)))))
(assert (= o37564548 (ite (= o35104864 (_ bv1 1)) ((_ extract 31 0) (_ bv0 64)) v58817252)))
(assert (= o55825844 (ite (= o33450684 (_ bv1 1)) v36173904 o37564548)))
(assert (= o36648916 (ite (= o36782836 (_ bv1 1)) v36173904 o55825844)))
(assert (= (= Fresh__69 (_ bv1 1)) (distinct o36648916 ((_ extract 31 0) (_ bv0 64)))))
(assert (= o34131304 Fresh__69))
(assert (= (= Fresh__70 (_ bv1 1)) (=> (= o54439080 (_ bv1 1)) (= o34131304 (_ bv1 1)))))
(assert (= o54406348 Fresh__70))
(assert (= (= Fresh__71 (_ bv1 1)) (=> (= o81474872 (_ bv1 1)) (= o54406348 (_ bv1 1)))))
(assert (= o25369884 Fresh__71))
(assert (= (= Fresh__72 (_ bv1 1)) (= ((_ extract 0 0) (_ bv0 64)) o25369884)))
(assert (= (_ bv1 1) Fresh__72))
(check-sat)
(exit)
